\ Model CA-RO
\ LP format - for model browsing. Use MPS format to capture full model detail.
Minimize
  Z + 0 M[0,0,0] + 0 M[0,0,1] + 0 M[0,0,2] + 0 M[0,0,3] + 0 M[1,0,0]
   + 0 M[1,0,1] + 0 M[1,0,2] + 0 M[1,0,3] + 0 M[1,1,0] + 0 M[1,1,1]
   + 0 M[1,1,2] + 0 M[1,1,3] + 0 M[2,0,0] + 0 M[2,0,1] + 0 M[2,0,2]
   + 0 M[2,0,3] + 0 M[2,1,0] + 0 M[2,1,1] + 0 M[2,1,2] + 0 M[2,1,3]
   + 0 M[2,2,0] + 0 M[2,2,1] + 0 M[2,2,2] + 0 M[2,2,3] + 0 M[3,0,0]
   + 0 M[3,0,1] + 0 M[3,0,2] + 0 M[3,0,3] + 0 M[3,1,0] + 0 M[3,1,1]
   + 0 M[3,1,2] + 0 M[3,1,3] + 0 M[3,2,0] + 0 M[3,2,1] + 0 M[3,2,2]
   + 0 M[3,2,3] + 0 M[3,3,0] + 0 M[3,3,1] + 0 M[3,3,2] + 0 M[3,3,3]
   + 0 M[4,0,0] + 0 M[4,0,1] + 0 M[4,0,2] + 0 M[4,0,3] + 0 M[4,1,0]
   + 0 M[4,1,1] + 0 M[4,1,2] + 0 M[4,1,3] + 0 M[4,2,0] + 0 M[4,2,1]
   + 0 M[4,2,2] + 0 M[4,2,3] + 0 M[4,3,0] + 0 M[4,3,1] + 0 M[4,3,2]
   + 0 M[4,3,3] + 0 M[4,4,0] + 0 M[4,4,1] + 0 M[4,4,2] + 0 M[4,4,3]
   + 0 M[0,0,0] + 0 M[0,0,1] + 0 M[0,0,2] + 0 M[0,0,3] + 0 M[1,0,0]
   + 0 M[1,0,1] + 0 M[1,0,2] + 0 M[1,0,3] + 0 M[1,1,0] + 0 M[1,1,1]
   + 0 M[1,1,2] + 0 M[1,1,3] + 0 M[2,0,0] + 0 M[2,0,1] + 0 M[2,0,2]
   + 0 M[2,0,3] + 0 M[2,1,0] + 0 M[2,1,1] + 0 M[2,1,2] + 0 M[2,1,3]
   + 0 M[2,2,0] + 0 M[2,2,1] + 0 M[2,2,2] + 0 M[2,2,3] + 0 M[3,0,0]
   + 0 M[3,0,1] + 0 M[3,0,2] + 0 M[3,0,3] + 0 M[3,1,0] + 0 M[3,1,1]
   + 0 M[3,1,2] + 0 M[3,1,3] + 0 M[3,2,0] + 0 M[3,2,1] + 0 M[3,2,2]
   + 0 M[3,2,3] + 0 M[3,3,0] + 0 M[3,3,1] + 0 M[3,3,2] + 0 M[3,3,3]
   + 0 M[4,0,0] + 0 M[4,0,1] + 0 M[4,0,2] + 0 M[4,0,3] + 0 M[4,1,0]
   + 0 M[4,1,1] + 0 M[4,1,2] + 0 M[4,1,3] + 0 M[4,2,0] + 0 M[4,2,1]
   + 0 M[4,2,2] + 0 M[4,2,3] + 0 M[4,3,0] + 0 M[4,3,1] + 0 M[4,3,2]
   + 0 M[4,3,3] + 0 M[4,4,0] + 0 M[4,4,1] + 0 M[4,4,2] + 0 M[4,4,3]
Subject To
 c1[0,1]: Z - M[0,1,0] - M[0,1,1] - M[0,1,2] - M[0,1,3] - 6 M[0,1,0]
   - 6 M[0,1,1] - 6 M[0,1,2] - 6 M[0,1,3] >= 0
 c1[0,2]: Z - M[0,2,0] - M[0,2,1] - M[0,2,2] - M[0,2,3] - 6 M[0,2,0]
   - 6 M[0,2,1] - 6 M[0,2,2] - 6 M[0,2,3] >= 0
 c1[0,3]: Z - M[0,3,0] - M[0,3,1] - M[0,3,2] - M[0,3,3] - 6 M[0,3,0]
   - 6 M[0,3,1] - 6 M[0,3,2] - 6 M[0,3,3] >= 0
 c1[0,4]: Z - M[0,4,0] - M[0,4,1] - M[0,4,2] - M[0,4,3] - 6 M[0,4,0]
   - 6 M[0,4,1] - 6 M[0,4,2] - 6 M[0,4,3] >= 0
 c1[1,2]: Z - M[1,2,0] - M[1,2,1] - M[1,2,2] - M[1,2,3] - 6 M[1,2,0]
   - 6 M[1,2,1] - 6 M[1,2,2] - 6 M[1,2,3] >= 0
 c1[1,3]: Z - M[1,3,0] - M[1,3,1] - M[1,3,2] - M[1,3,3] - 6 M[1,3,0]
   - 6 M[1,3,1] - 6 M[1,3,2] - 6 M[1,3,3] >= 0
 c1[1,4]: Z - M[1,4,0] - M[1,4,1] - M[1,4,2] - M[1,4,3] - 6 M[1,4,0]
   - 6 M[1,4,1] - 6 M[1,4,2] - 6 M[1,4,3] >= 0
 c1[2,3]: Z - M[2,3,0] - M[2,3,1] - M[2,3,2] - M[2,3,3] - 6 M[2,3,0]
   - 6 M[2,3,1] - 6 M[2,3,2] - 6 M[2,3,3] >= 0
 c1[2,4]: Z - M[2,4,0] - M[2,4,1] - M[2,4,2] - M[2,4,3] - 6 M[2,4,0]
   - 6 M[2,4,1] - 6 M[2,4,2] - 6 M[2,4,3] >= 0
 c1[3,4]: Z - M[3,4,0] - M[3,4,1] - M[3,4,2] - M[3,4,3] - 6 M[3,4,0]
   - 6 M[3,4,1] - 6 M[3,4,2] - 6 M[3,4,3] >= 0
 c2[0,1,0]: 30 M[0,1,0] >= 45.81539874375785
 c2[0,1,1]: 30 M[0,1,1] >= 33.26594544777234
 c2[0,1,2]: 30 M[0,1,2] >= 41.82197615880524
 c2[0,1,3]: 30 M[0,1,3] >= 36.81639135039836
 c2[0,2,0]: 30 M[0,2,0] >= 44.662878325096
 c2[0,2,1]: 30 M[0,2,1] >= 31.3601682750706
 c2[0,2,2]: 30 M[0,2,2] >= 40.33307258020176
 c2[0,2,3]: 30 M[0,2,3] >= 38.18131460886438
 c2[0,3,0]: 30 M[0,3,0] >= 46.50347757976021
 c2[0,3,1]: 30 M[0,3,1] >= 30.8497372479755
 c2[0,3,2]: 30 M[0,3,2] >= 43.83816951128131
 c2[0,3,3]: 30 M[0,3,3] >= 35.44097403364778
 c2[0,4,0]: 30 M[0,4,0] >= 44.662878325096
 c2[0,4,1]: 30 M[0,4,1] >= 32.5601682750706
 c2[0,4,2]: 30 M[0,4,2] >= 40.83307258020176
 c2[0,4,3]: 30 M[0,4,3] >= 35.68131460886438
 c2[1,2,0]: 30 M[1,2,0] >= 45.662878325096
 c2[1,2,1]: 30 M[1,2,1] >= 29.7601682750706
 c2[1,2,2]: 30 M[1,2,2] >= 39.33307258020176
 c2[1,2,3]: 30 M[1,2,3] >= 37.18131460886438
 c2[1,3,0]: 30 M[1,3,0] >= 47.50347757976021
 c2[1,3,1]: 30 M[1,3,1] >= 29.2497372479755
 c2[1,3,2]: 30 M[1,3,2] >= 42.83816951128131
 c2[1,3,3]: 30 M[1,3,3] >= 34.44097403364778
 c2[1,4,0]: 30 M[1,4,0] >= 45.662878325096
 c2[1,4,1]: 30 M[1,4,1] >= 30.9601682750706
 c2[1,4,2]: 30 M[1,4,2] >= 39.83307258020176
 c2[1,4,3]: 30 M[1,4,3] >= 34.68131460886438
 c2[2,3,0]: 30 M[2,3,0] >= 47.52061029174185
 c2[2,3,1]: 30 M[2,3,1] >= 30.38753793972074
 c2[2,3,2]: 30 M[2,3,2] >= 43.33704051221119
 c2[2,3,3]: 30 M[2,3,3] >= 32.20741584889457
 c2[2,4,0]: 30 M[2,4,0] >= 45.68715104914796
 c2[2,4,1]: 30 M[2,4,1] >= 32.1027984724653
 c2[2,4,2]: 30 M[2,4,2] >= 40.33816951128131
 c2[2,4,3]: 30 M[2,4,3] >= 32.45321893160697
 c2[3,4,0]: 30 M[3,4,0] >= 42.70428376112961
 c2[3,4,1]: 30 M[3,4,1] >= 31.84059916421054
 c2[3,4,2]: 30 M[3,4,2] >= 35.83704051221119
 c2[3,4,3]: 30 M[3,4,3] >= 34.31966074685376
 c3[0,1,0]: 30 M[0,1,0] >= 47.81539874375785
 c3[0,1,1]: 30 M[0,1,1] >= 30.06594544777234
 c3[0,1,2]: 30 M[0,1,2] >= 39.82197615880524
 c3[0,1,3]: 30 M[0,1,3] >= 34.81639135039836
 c3[0,2,0]: 30 M[0,2,0] >= 47.84655179448376
 c3[0,2,1]: 30 M[0,2,1] >= 31.21322949956039
 c3[0,2,2]: 30 M[0,2,2] >= 40.33307258020176
 c3[0,2,3]: 30 M[0,2,3] >= 32.59355950682356
 c3[0,3,0]: 30 M[0,3,0] >= 44.87082451853572
 c3[0,3,1]: 30 M[0,3,1] >= 30.9558596969551
 c3[0,3,2]: 30 M[0,3,2] >= 35.83816951128131
 c3[0,3,3]: 30 M[0,3,3] >= 34.46546382956615
 c3[0,4,0]: 30 M[0,4,0] >= 47.84655179448376
 c3[0,4,1]: 30 M[0,4,1] >= 30.01322949956039
 c3[0,4,2]: 30 M[0,4,2] >= 39.83307258020176
 c3[0,4,3]: 30 M[0,4,3] >= 35.09355950682356
 c3[1,2,0]: 30 M[1,2,0] >= 46.84655179448376
 c3[1,2,1]: 30 M[1,2,1] >= 32.81322949956039
 c3[1,2,2]: 30 M[1,2,2] >= 41.33307258020176
 c3[1,2,3]: 30 M[1,2,3] >= 33.59355950682356
 c3[1,3,0]: 30 M[1,3,0] >= 43.87082451853572
 c3[1,3,1]: 30 M[1,3,1] >= 32.5558596969551
 c3[1,3,2]: 30 M[1,3,2] >= 36.83816951128131
 c3[1,3,3]: 30 M[1,3,3] >= 35.46546382956615
 c3[1,4,0]: 30 M[1,4,0] >= 46.84655179448376
 c3[1,4,1]: 30 M[1,4,1] >= 31.61322949956039
 c3[1,4,2]: 30 M[1,4,2] >= 40.83307258020176
 c3[1,4,3]: 30 M[1,4,3] >= 36.09355950682356
 c3[2,3,0]: 30 M[2,3,0] >= 42.70428376112961
 c3[2,3,1]: 30 M[2,3,1] >= 30.64059916421054
 c3[2,3,2]: 30 M[2,3,2] >= 35.33704051221119
 c3[2,3,3]: 30 M[2,3,3] >= 36.81966074685376
 c3[2,4,0]: 30 M[2,4,0] >= 45.68715104914796
 c3[2,4,1]: 30 M[2,4,1] >= 29.7027984724653
 c3[2,4,2]: 30 M[2,4,2] >= 39.33816951128131
 c3[2,4,3]: 30 M[2,4,3] >= 37.45321893160697
 c3[3,4,0]: 30 M[3,4,0] >= 47.52061029174185
 c3[3,4,1]: 30 M[3,4,1] >= 29.18753793972074
 c3[3,4,2]: 30 M[3,4,2] >= 42.83704051221119
 c3[3,4,3]: 30 M[3,4,3] >= 34.70741584889457
 c4[0,1,0]: 30 M[0,1,0] >= 51.99922080530379
 c4[0,1,1]: 30 M[0,1,1] >= 23.79947179492876
 c4[0,1,2]: 30 M[0,1,2] >= 39.67699375023959
 c4[0,1,3]: 30 M[0,1,3] >= 30.71543273998037
 c4[0,2,0]: 30 M[0,2,0] >= 51.64895008477068
 c4[0,2,1]: 30 M[0,2,1] >= 23.94917608480798
 c4[0,2,2]: 30 M[0,2,2] >= 39.67699375023959
 c4[0,2,3]: 30 M[0,2,3] >= 30.55743607192539
 c4[0,3,0]: 30 M[0,3,0] >= 51.84969977240083
 c4[0,3,1]: 30 M[0,3,1] >= 24.09316608897291
 c4[0,3,2]: 30 M[0,3,2] >= 40.17699375023959
 c4[0,3,3]: 30 M[0,3,3] >= 30.65923532223776
 c4[0,4,0]: 30 M[0,4,0] >= 51.64895008477068
 c4[0,4,1]: 30 M[0,4,1] >= 23.85284955419574
 c4[0,4,2]: 30 M[0,4,2] >= 39.92699375023959
 c4[0,4,3]: 30 M[0,4,3] >= 30.45682382702743
 c4[1,2,0]: 30 M[1,2,0] >= 51.83262355415843
 c4[1,2,1]: 30 M[1,2,1] >= 24.02427812562431
 c4[1,2,2]: 30 M[1,2,2] >= 39.67699375023959
 c4[1,2,3]: 30 M[1,2,3] >= 30.38519117396621
 c4[1,3,0]: 30 M[1,3,0] >= 52.03337324178858
 c4[1,3,1]: 30 M[1,3,1] >= 24.16826812978924
 c4[1,3,2]: 30 M[1,3,2] >= 40.17699375023959
 c4[1,3,3]: 30 M[1,3,3] >= 30.48699042427858
 c4[1,4,0]: 30 M[1,4,0] >= 51.83262355415843
 c4[1,4,1]: 30 M[1,4,1] >= 23.92795159501206
 c4[1,4,2]: 30 M[1,4,2] >= 39.92699375023959
 c4[1,4,3]: 30 M[1,4,3] >= 30.28457892906825
 c4[2,3,0]: 30 M[2,3,0] >= 52.3836439623217
 c4[2,3,1]: 30 M[2,3,1] >= 24.01856383991002
 c4[2,3,2]: 30 M[2,3,2] >= 40.17699375023959
 c4[2,3,3]: 30 M[2,3,3] >= 30.64498709233356
 c4[2,4,0]: 30 M[2,4,0] >= 52.18289427469154
 c4[2,4,1]: 30 M[2,4,1] >= 23.77824730513284
 c4[2,4,2]: 30 M[2,4,2] >= 39.92699375023959
 c4[2,4,3]: 30 M[2,4,3] >= 30.44257559712322
 c4[3,4,0]: 30 M[3,4,0] >= 51.98214458706138
 c4[3,4,1]: 30 M[3,4,1] >= 23.63425730096791
 c4[3,4,2]: 30 M[3,4,2] >= 39.42699375023959
 c4[3,4,3]: 30 M[3,4,3] >= 30.34077634681086
 c5[0,1,0]: 30 M[0,1,0] >= 52.3665677440793
 c5[0,1,1]: 30 M[0,1,1] >= 23.94967587656142
 c5[0,1,2]: 30 M[0,1,2] >= 39.67699375023959
 c5[0,1,3]: 30 M[0,1,3] >= 30.370942944062
 c5[0,2,0]: 30 M[0,2,0] >= 52.71683846461241
 c5[0,2,1]: 30 M[0,2,1] >= 23.7999715866822
 c5[0,2,2]: 30 M[0,2,2] >= 39.67699375023959
 c5[0,2,3]: 30 M[0,2,3] >= 30.52893961211698
 c5[0,3,0]: 30 M[0,3,0] >= 52.51608877698225
 c5[0,3,1]: 30 M[0,3,1] >= 23.65598158251727
 c5[0,3,2]: 30 M[0,3,2] >= 39.17699375023959
 c5[0,3,3]: 30 M[0,3,3] >= 30.42714036180461
 c5[0,4,0]: 30 M[0,4,0] >= 52.71683846461241
 c5[0,4,1]: 30 M[0,4,1] >= 23.89629811729444
 c5[0,4,2]: 30 M[0,4,2] >= 39.42699375023959
 c5[0,4,3]: 30 M[0,4,3] >= 30.62955185701494
 c5[1,2,0]: 30 M[1,2,0] >= 52.53316499522465
 c5[1,2,1]: 30 M[1,2,1] >= 23.72486954586587
 c5[1,2,2]: 30 M[1,2,2] >= 39.67699375023959
 c5[1,2,3]: 30 M[1,2,3] >= 30.70118451007616
 c5[1,3,0]: 30 M[1,3,0] >= 52.3324153075945
 c5[1,3,1]: 30 M[1,3,1] >= 23.58087954170094
 c5[1,3,2]: 30 M[1,3,2] >= 39.17699375023959
 c5[1,3,3]: 30 M[1,3,3] >= 30.59938525976379
 c5[1,4,0]: 30 M[1,4,0] >= 52.53316499522465
 c5[1,4,1]: 30 M[1,4,1] >= 23.82119607647812
 c5[1,4,2]: 30 M[1,4,2] >= 39.42699375023959
 c5[1,4,3]: 30 M[1,4,3] >= 30.80179675497412
 c5[2,3,0]: 30 M[2,3,0] >= 51.98214458706138
 c5[2,3,1]: 30 M[2,3,1] >= 23.73058383158016
 c5[2,3,2]: 30 M[2,3,2] >= 39.17699375023959
 c5[2,3,3]: 30 M[2,3,3] >= 30.44138859170881
 c5[2,4,0]: 30 M[2,4,0] >= 52.18289427469154
 c5[2,4,1]: 30 M[2,4,1] >= 23.97090036635733
 c5[2,4,2]: 30 M[2,4,2] >= 39.42699375023959
 c5[2,4,3]: 30 M[2,4,3] >= 30.64380008691914
 c5[3,4,0]: 30 M[3,4,0] >= 52.3836439623217
 c5[3,4,1]: 30 M[3,4,1] >= 24.11489037052226
 c5[3,4,2]: 30 M[3,4,2] >= 39.92699375023959
 c5[3,4,3]: 30 M[3,4,3] >= 30.74559933723151
Bounds
End
